(set-logic ALL)
(declare-const k Int)
(declare-fun s () (_ BitVec k))
(declare-fun t () (_ BitVec k))
(assert (not (distinct (= s (bvudiv s (bvlshr s (_ bv1 k)))) (= (_ bv1 k) (bvlshr s (_ bv1 k))))))
(check-sat)
